/*********************************************
 * OPL 12.6.0.0 Data
 * Author: Adrian Rodriguez Bazaga, Pau Rodriguez Esmerats
 * Creation Date: 09/12/2017 at 00:43:49
 *********************************************/

maxConsec=9;
maxPresence=13;
maxHours=8;
minHours=5;
hours=20;
demand= [18 26 26 25 23 21 23 25 21 16 8 5 2 1 0 0 0 0 0 0  ];
nNurses=31;
